Maximize
obj: x1 + 2 x2 + 3 x3 + x4
Subject To
c1: - x1 + x2 + x3 + 10 x4 - x5 <= 0
c2: x1 - 3 x2 + x3 -x6 <= 0
c3: x2 - 3.5 x4 = 0
c4: x5 =20
c6: x6 =30
Bounds
0 <= x1 <= 1
2 <= x4 <= 3
x3 <= 4

General
x1


End